Route #1: 53 28 40 26 57 15 43 2 87
Route #2: 97 42 92 59 99 5 84 17 83 60
Route #3: 82 8 47 19 48
Route #4: 88 31 70 30 49 7
Route #5: 46 64 11 62 10 45 18 93
Route #6: 52 89 6 96 94 13 58
Route #7: 37 98 85 61 16
Route #8: 14 38 86 44 91 100
Route #9: 33 81 9 66 20 51
Route #10: 77 3 79 50 1 69 27 76
Route #11: 54 24 78 34 29 68 12 80
Route #12: 32 65 35 71 63 90 36 95
Route #13: 72 21 56 23 75 22
Route #14: 55 25 67 39 4 74 41 73
Cost 1506
